(set-logic HORN)
(declare-fun P0 (Int Int Int Int) Bool)
(declare-fun P14 (Int Int Int) Bool)
(declare-fun P15 (Int) Bool)
(declare-fun P7 (Int) Bool)
(declare-fun P1 (Int) Bool)
(declare-fun P2 (Int Int) Bool)
(declare-fun P3 (Int Int Int) Bool)
(declare-fun P4 (Int) Bool)
(declare-fun P5 (Int Int) Bool)
(declare-fun P8 (Int) Bool)
(declare-fun P9 (Int Int) Bool)
(declare-fun P10 (Int Int Int) Bool)
(declare-fun P11 (Int Int Int Int) Bool)
(declare-fun P6 (Int Int Int) Bool)
(declare-fun P12 (Int Int) Bool)
(declare-fun P16 (Int) Bool)
(declare-fun P18 (Int Int) Bool)
(declare-fun P13 (Int Int Int Int Int) Bool)
(declare-fun P17 (Int Int) Bool)
(assert (forall ((x0 Int) (x1 Int)) (=> (and (P15 x0) (P15 x1) (= x1 x0)) (P17 x0 x1))))
(assert (forall ((x0 Int) (x1 Int)) (=> (and (P7 x0) (P7 x1) (= x1 x0)) (P12 x0 x1))))
(assert (forall ((x1 Int) (x2 Int) (x3 Int) (x0 Int)) (=> (and (P1 x1) (P2 x1 x2) (P3 x1 x2 x3) (<= 0 x2) (<= (+ 1 x2) x1)) (P0 x1 x2 x3 x0))))
(assert (forall ((x1 Int) (x2 Int) (x0 Int)) (=> (and (P4 x1) (P5 x1 x2) (<= 0 x2) (<= (+ 1 x2) x1) (= x0 0)) (P6 x1 x2 x0))))
(assert (forall ((x1 Int) (x2 Int) (x3 Int) (x4 Int) (x0 Int)) (=> (and (P8 x1) (P9 x1 x2) (P10 x1 x2 x3) (P11 x1 x2 x3 x4) (<= (+ 1 x4) x3) (= x0 -1)) (P13 x1 x2 x3 x4 x0))))
(assert (forall ((x6 Int) (x2 Int) (x0 Int) (x4 Int) (x3 Int) (x1 Int) (x5 Int)) (=> (and (P8 x5) (P10 x5 x6 x3) (P11 x5 x6 x3 x4) (P9 x5 x6) (<= (* 2 x2) x0) (>= (+ 1 (* 2 x2)) x0) (>= x4 x3) (= x4 (+ x0 x3)) (= x1 (+ x3 x2))) (P4 x6))))
(assert (forall ((x4 Int) (x1 Int) (x2 Int) (x0 Int) (x6 Int) (x5 Int) (x3 Int)) (=> (and (P8 x3) (P9 x3 x4) (P10 x3 x4 x5) (P11 x3 x4 x5 x6) (<= (* 2 x2) x0) (>= (+ 1 (* 2 x2)) x0) (>= x6 x5) (= x6 (+ x0 x5)) (= x1 (+ x5 x2))) (P5 x4 x1))))
(assert (forall ((x8 Int) (x1 Int) (x0 Int) (x4 Int) (x3 Int) (x7 Int) (x6 Int) (x2 Int) (x5 Int)) (=> (and (P9 x8 x5) (P10 x8 x5 x3) (P11 x8 x5 x3 x4) (P6 x5 x6 x7) (P8 x8) (<= (* 2 x1) x0) (>= (+ 1 (* 2 x1)) x0) (>= x4 x3) (<= (+ 1 x7) x8) (= x4 (+ x0 x3)) (= x6 (+ x3 x1)) (= x2 (+ 1 x6))) (P8 x8))))
(assert (forall ((x7 Int) (x8 Int) (x1 Int) (x0 Int) (x4 Int) (x3 Int) (x6 Int) (x5 Int) (x2 Int)) (=> (and (P10 x7 x8 x3) (P11 x7 x8 x3 x4) (P6 x8 x5 x6) (P8 x7) (P9 x7 x8) (<= (* 2 x1) x0) (>= (+ 1 (* 2 x1)) x0) (>= x4 x3) (<= (+ 1 x6) x7) (= x4 (+ x0 x3)) (= x5 (+ x3 x1)) (= x2 (+ 1 x5))) (P9 x7 x8))))
(assert (forall ((x7 Int) (x8 Int) (x2 Int) (x1 Int) (x0 Int) (x4 Int) (x3 Int) (x6 Int) (x5 Int)) (=> (and (P10 x7 x8 x3) (P11 x7 x8 x3 x4) (P6 x8 x5 x6) (P8 x7) (P9 x7 x8) (<= (* 2 x1) x0) (>= (+ 1 (* 2 x1)) x0) (>= x4 x3) (<= (+ 1 x6) x7) (= x4 (+ x0 x3)) (= x5 (+ x3 x1)) (= x2 (+ 1 x5))) (P10 x7 x8 x2))))
(assert (forall ((x5 Int) (x6 Int) (x2 Int) (x8 Int) (x1 Int) (x0 Int) (x7 Int) (x4 Int) (x3 Int)) (=> (and (P10 x5 x6 x7) (P6 x6 x3 x4) (P8 x5) (P9 x5 x6) (P11 x5 x6 x7 x8) (<= (* 2 x1) x0) (>= (+ 1 (* 2 x1)) x0) (>= x8 x7) (<= (+ 1 x4) x5) (= x8 (+ x0 x7)) (= x3 (+ x7 x1)) (= x2 (+ 1 x3))) (P11 x5 x6 x2 x8))))
(assert (forall ((x5 Int) (x6 Int) (x4 Int) (x8 Int) (x9 Int) (x1 Int) (x0 Int) (x3 Int) (x2 Int) (x7 Int)) (=> (and (P10 x5 x6 x4) (P6 x6 x2 x3) (P8 x5) (P9 x5 x6) (P11 x5 x6 x4 x8) (P13 x5 x6 x7 x8 x9) (<= (* 2 x1) x0) (>= (+ 1 (* 2 x1)) x0) (>= x8 x4) (<= (+ 1 x3) x5) (= x8 (+ x0 x4)) (= x2 (+ x4 x1)) (= x7 (+ 1 x2))) (P13 x5 x6 x4 x8 x9))))
(assert (forall ((x8 Int) (x2 Int) (x1 Int) (x4 Int) (x3 Int) (x7 Int) (x0 Int) (x6 Int) (x5 Int)) (=> (and (P9 x8 x5) (P10 x8 x5 x3) (P11 x8 x5 x3 x4) (P6 x5 x6 x7) (P8 x8) (<= (* 2 x2) x1) (>= (+ 1 (* 2 x2)) x1) (>= x4 x3) (>= x7 (+ 1 x8)) (= (+ x3 x2) (+ 1 x0)) (= x4 (+ x1 x3)) (= x6 (+ x3 x2))) (P8 x8))))
(assert (forall ((x7 Int) (x8 Int) (x2 Int) (x1 Int) (x4 Int) (x3 Int) (x6 Int) (x0 Int) (x5 Int)) (=> (and (P10 x7 x8 x3) (P11 x7 x8 x3 x4) (P6 x8 x5 x6) (P8 x7) (P9 x7 x8) (<= (* 2 x2) x1) (>= (+ 1 (* 2 x2)) x1) (>= x4 x3) (>= x6 (+ 1 x7)) (= (+ x3 x2) (+ 1 x0)) (= x4 (+ x1 x3)) (= x5 (+ x3 x2))) (P9 x7 x8))))
(assert (forall ((x6 Int) (x7 Int) (x8 Int) (x2 Int) (x1 Int) (x3 Int) (x5 Int) (x0 Int) (x4 Int)) (=> (and (P11 x6 x7 x8 x3) (P6 x7 x4 x5) (P8 x6) (P9 x6 x7) (P10 x6 x7 x8) (<= (* 2 x2) x1) (>= (+ 1 (* 2 x2)) x1) (>= x3 x8) (>= x5 (+ 1 x6)) (= (+ x8 x2) (+ 1 x0)) (= x3 (+ x1 x8)) (= x4 (+ x8 x2))) (P10 x6 x7 x8))))
(assert (forall ((x6 Int) (x7 Int) (x8 Int) (x0 Int) (x2 Int) (x1 Int) (x3 Int) (x5 Int) (x4 Int)) (=> (and (P11 x6 x7 x8 x3) (P6 x7 x4 x5) (P8 x6) (P9 x6 x7) (P10 x6 x7 x8) (<= (* 2 x2) x1) (>= (+ 1 (* 2 x2)) x1) (>= x3 x8) (>= x5 (+ 1 x6)) (= (+ x8 x2) (+ 1 x0)) (= x3 (+ x1 x8)) (= x4 (+ x8 x2))) (P11 x6 x7 x8 x0))))
(assert (forall ((x5 Int) (x6 Int) (x7 Int) (x2 Int) (x9 Int) (x1 Int) (x0 Int) (x4 Int) (x8 Int) (x3 Int)) (=> (and (P11 x5 x6 x7 x2) (P6 x6 x3 x4) (P8 x5) (P9 x5 x6) (P10 x5 x6 x7) (P13 x5 x6 x7 x8 x9) (<= (* 2 x1) x0) (>= (+ 1 (* 2 x1)) x0) (>= x2 x7) (>= x4 (+ 1 x5)) (= (+ x7 x1) (+ 1 x8)) (= x2 (+ x0 x7)) (= x3 (+ x7 x1))) (P13 x5 x6 x7 x2 x9))))
(assert (forall ((x6 Int) (x4 Int) (x2 Int) (x3 Int) (x5 Int) (x1 Int) (x0 Int)) (=> (and (P8 x6) (P9 x6 x4) (P10 x6 x4 x2) (P11 x6 x4 x2 x3) (P6 x4 x5 x6) (<= (* 2 x1) x0) (>= (+ 1 (* 2 x1)) x0) (>= x3 x2) (= x3 (+ x0 x2)) (= x5 (+ x2 x1))) (P13 x6 x4 x2 x3 x5))))
(assert (forall ((x1 Int) (x0 Int)) (=> (and (P16 x0) (P18 x0 x1)) (P7 x1))))
(assert (forall ((x3 Int) (x2 Int) (x0 Int) (x1 Int)) (=> (and (P18 x3 x1) (P12 x1 x2) (P16 x3) (= x2 (+ 1 x0))) (P8 x3))))
(assert (forall ((x2 Int) (x3 Int) (x1 Int) (x0 Int)) (=> (and (P12 x3 x1) (P16 x2) (P18 x2 x3) (= x1 (+ 1 x0))) (P9 x2 x3))))
(assert (forall ((x3 Int) (x4 Int) (x0 Int) (x2 Int) (x1 Int)) (=> (and (P12 x4 x2) (P16 x3) (P18 x3 x4) (= x0 0) (= x2 (+ 1 x1))) (P10 x3 x4 x0))))
(assert (forall ((x3 Int) (x4 Int) (x0 Int) (x1 Int) (x2 Int)) (=> (and (P12 x4 x2) (P16 x3) (P18 x3 x4) (= x0 0) (= x2 (+ 1 x1))) (P11 x3 x4 x0 x1))))
(assert (forall ((x1 Int) (x2 Int) (x4 Int) (x0 Int) (x3 Int)) (=> (and (P12 x2 x0) (P16 x1) (P18 x1 x2) (P13 x1 x2 0 x3 x4) (= x0 (+ 1 x3))) (P14 x1 x2 x4))))
(assert (forall ((x0 Int)) (=> true (P15 x0))))
(assert (forall ((x0 Int) (x1 Int) (x2 Int)) (=> (P17 x1 x2) (P15 x0))))
(assert (forall ((x2 Int) (x1 Int) (x0 Int)) (=> (and (P17 x1 x0) (P17 x1 x2) (<= 0 x1)) (P16 x2))))
(assert (forall ((x0 Int) (x2 Int) (x1 Int)) (=> (and (P17 x1 x0) (P17 x1 x2) (<= 0 x1)) (P18 x0 x2))))
(assert (forall ((x0 Int) (x1 Int) (x3 Int) (x2 Int) (x4 Int)) (=> (and (P1 x2) (P2 x2 x3) (P3 x2 x3 x4) (or (not (> x0 0)) (not (> x1 0))) (or (and (> x0 0) (<= 0 x3)) (and (not (> x0 0)) (not (<= 0 x3)))) (or (and (> x1 0) (< x3 x2)) (and (not (> x1 0)) (not (< x3 x2))))) false)))
(assert (forall ((x0 Int) (x1 Int) (x3 Int) (x2 Int)) (=> (and (P4 x2) (P5 x2 x3) (or (not (> x0 0)) (not (> x1 0))) (or (and (> x0 0) (<= 0 x3)) (and (not (> x0 0)) (not (<= 0 x3)))) (or (and (> x1 0) (< x3 x2)) (and (not (> x1 0)) (not (< x3 x2))))) false)))
(check-sat)
